16 20

12 6 18 12 6 6 1 9 10 12
14 3 5 3 6 4 7 4
14 15 3 3 12 10 10 11 4 11
12 10 18 13 6 6 1 10 4 6
12 6 6 9 18 12 17 8 13 11 1 6
19 8 7 3 2 12 1 4 18 7 11 2
2 6 10 2 20 14 7 13 11 6
7 2 15 15 14 8 17 9 6 6 18 14
17 6 2 8 3 15 11 10 10 12 20 10
15 11 17 5 7 2 20 3
13 9 2 2 20 13 8 5 6 8 10 4
12 11 19 10 13 3 1 12 7 14
10 10 13 15 8 13 12 4 9 8 6 2
5 10 19 15 17 14 9 4 10 3 3 4
20 11 10 11 4 13 14 15 11 14
4 15 1 3 7 4 10 11
